set VV := 0 1 2 3 ;
set VS := 0 1 2 3 4 5 6 7 8 9 10 11 12 ;
param cv := 
0 19
1 24
2 24
3 25
;
param cs := 
0 20
1 21
2 39
3 31
4 23
5 30
6 22
7 31
8 31
9 27
10 36
11 38
12 21
;
param bv:	 0 1 2 3 := 
		0 0 22 0 24 
		1 0 0 0 0 
		2 0 0 0 11 
		3 0 0 0 0 
;
param bs:	 0 1 2 3 4 5 6 7 8 9 10 11 12 := 
		0 0 37 0 0 0 0 0 0 40 0 0 0 0 
		1 37 0 0 0 0 0 0 29 0 0 0 0 39 
		2 0 0 0 0 0 0 0 21 0 0 0 27 33 
		3 0 0 0 0 0 0 0 0 0 0 0 0 32 
		4 0 0 0 0 0 26 0 0 0 0 29 0 0 
		5 0 0 0 0 26 0 0 33 0 0 0 0 0 
		6 0 0 0 0 0 0 0 30 0 0 0 40 31 
		7 0 29 21 0 0 33 30 0 0 36 0 0 0 
		8 40 0 0 0 0 0 0 0 0 0 0 28 0 
		9 0 0 0 0 0 0 0 36 0 0 35 0 0 
		10 0 0 0 0 29 0 0 0 0 35 0 0 0 
		11 0 0 27 0 0 0 40 0 28 0 0 0 0 
		12 0 39 33 32 0 0 31 0 0 0 0 0 0 
;
